Optimal - objective value 10.00000000
      0 x_0_0                       1                       1
      2 x_1_1                       1                       0
      4 x_2_1                       1                       0
      9 x_3_3                       1                       1
     13 x_4_3                       1                       0
     20 x_5_5                       1                       1
     21 x_6_0                       1                       0
     35 x_7_7                       1                       0
     44 x_8_8                       1                       1
     54 x_9_9                       1                       1
     63 x_10_8                      1                      -1
     75 x_11_9                      1                       0
     90 x_12_12                     1                       1
     98 x_13_7                      1                       0
    106 x_14_1                      1                      -1
    135 x_15_15                     1                       1
    148 x_16_12                     1                      -1
    168 x_17_15                     1                       0
    171 x_18_0                      1                      -1
    202 x_19_12                     1                       0
    225 x_20_15                     1                       0
    238 x_21_7                      1                       0
    261 x_22_8                      1                      -1
    288 x_23_12                     1                       0
    301 x_24_1                      1                       0
    334 x_25_9                      1                      -1
    377 x_26_26                     1                       0
    383 x_27_5                      1                      -1
    413 x_28_7                      1                       0
    436 x_29_1                      1                       0
    465 x_30_0                      1                       0
    499 x_31_3                      1                      -1
    535 x_32_7                      1                       0
    587 x_33_26                     1                       0
    602 x_34_7                      1                      -1
    635 x_35_5                      1                       0
    692 x_36_26                     1                      -1
    729 x_37_26                     1                       0
    750 x_38_9                      1                       0
    788 x_39_8                      1                       0
    835 x_40_15                     1                       0
    869 x_41_8                      1                       0
    918 x_42_15                     1                       0
    972 x_43_26                     1                       0
   1016 x_44_26                     1                       0
   1040 x_45_5                      1                       0
   1081 x_46_0                      1                       0
   1131 x_47_3                      1                       0
   1185 x_48_9                      1                       0
   1230 x_49_5                      1                       0
   1287 x_50_12                     1                       0
   1333 x_51_7                      1                       0
